39435 34977 
38989 35210 
39326 35012 
38675 35316 
38436 35424 
39687 34691 
38135 35621 
38254 35497 
38396 35445 
36972 36122 
36852 36172 
37440 35887 
37370 35901 
38260 35489 
38706 35256 
38190 35508 
37100 36028 
36210 36334 
35974 36382 
36383 36288 
36616 36220 
36468 36262 
35564 36561 
37249 35991 
35821 36454 
37718 35830 
37576 35882 
37827 35795 
38019 35633 
37540 35883 
37934 35704 
